NAME          DCAP_2_4_3_200_SS85
ROWS
 N  OBJ
 L  CON1
 L  CON2
 L  CON3
 L  CON4
 L  CON5
 L  CON6
 L  CON7
 L  CON8
 L  CON9
 L  CON10
 L  CON11
 L  CON12
 E  CON13
 E  CON14
 E  CON15
 E  CON16
 E  CON17
 E  CON18
 E  CON19
 E  CON20
 E  CON21
 E  CON22
 E  CON23
 E  CON24
COLUMNS
    x[1,1]    OBJ       6.180167      CON1      1.000000    
    x[1,1]    CON7      -1.000000     CON8      -1.000000   
    x[1,1]    CON9      -1.000000   
    x[1,2]    OBJ       6.563535      CON2      1.000000    
    x[1,2]    CON8      -1.000000     CON9      -1.000000   
    x[1,3]    OBJ       7.443064      CON3      1.000000    
    x[1,3]    CON9      -1.000000   
    x[2,1]    OBJ       6.732585      CON4      1.000000    
    x[2,1]    CON10     -1.000000     CON11     -1.000000   
    x[2,1]    CON12     -1.000000   
    x[2,2]    OBJ       5.039546      CON5      1.000000    
    x[2,2]    CON11     -1.000000     CON12     -1.000000   
    x[2,3]    OBJ       6.054841      CON6      1.000000    
    x[2,3]    CON12     -1.000000   
    MARKER    'MARKER'                'INTORG'
    u[1,1]    OBJ       48.076654     CON1      -1.000000   
    u[1,2]    OBJ       20.066487     CON2      -1.000000   
    u[1,3]    OBJ       32.230043     CON3      -1.000000   
    u[2,1]    OBJ       49.996186     CON4      -1.000000   
    u[2,2]    OBJ       49.466655     CON5      -1.000000   
    u[2,3]    OBJ       27.484319     CON6      -1.000000   
    y[1,1,1]  OBJ       8.805303      CON7      0.984361    
    y[1,1,1]  CON13     1.000000    
    y[1,1,2]  OBJ       9.879089      CON8      1.158840    
    y[1,1,2]  CON14     1.000000    
    y[1,1,3]  OBJ       7.598611      CON9      1.453974    
    y[1,1,3]  CON15     1.000000    
    y[1,2,1]  OBJ       8.741185      CON7      0.501386    
    y[1,2,1]  CON16     1.000000    
    y[1,2,2]  OBJ       8.191247      CON8      1.214281    
    y[1,2,2]  CON17     1.000000    
    y[1,2,3]  OBJ       9.120383      CON9      1.361056    
    y[1,2,3]  CON18     1.000000    
    y[1,3,1]  OBJ       9.387070      CON7      0.684647    
    y[1,3,1]  CON19     1.000000    
    y[1,3,2]  OBJ       8.584601      CON8      1.400405    
    y[1,3,2]  CON20     1.000000    
    y[1,3,3]  OBJ       6.662245      CON9      1.311188    
    y[1,3,3]  CON21     1.000000    
    y[1,4,1]  OBJ       5.570098      CON7      0.756991    
    y[1,4,1]  CON22     1.000000    
    y[1,4,2]  OBJ       8.960883      CON8      1.471127    
    y[1,4,2]  CON23     1.000000    
    y[1,4,3]  OBJ       9.747924      CON9      1.012855    
    y[1,4,3]  CON24     1.000000    
    y[2,1,1]  OBJ       9.770883      CON10     0.984361    
    y[2,1,1]  CON13     1.000000    
    y[2,1,2]  OBJ       5.733000      CON11     1.158840    
    y[2,1,2]  CON14     1.000000    
    y[2,1,3]  OBJ       9.779624      CON12     1.453974    
    y[2,1,3]  CON15     1.000000    
    y[2,2,1]  OBJ       8.795025      CON10     0.501386    
    y[2,2,1]  CON16     1.000000    
    y[2,2,2]  OBJ       5.317115      CON11     1.214281    
    y[2,2,2]  CON17     1.000000    
    y[2,2,3]  OBJ       5.013145      CON12     1.361056    
    y[2,2,3]  CON18     1.000000    
    y[2,3,1]  OBJ       5.055273      CON10     0.684647    
    y[2,3,1]  CON19     1.000000    
    y[2,3,2]  OBJ       8.488627      CON11     1.400405    
    y[2,3,2]  CON20     1.000000    
    y[2,3,3]  OBJ       5.602976      CON12     1.311188    
    y[2,3,3]  CON21     1.000000    
    y[2,4,1]  OBJ       5.806183      CON10     0.756991    
    y[2,4,1]  CON22     1.000000    
    y[2,4,2]  OBJ       5.307048      CON11     1.471127    
    y[2,4,2]  CON23     1.000000    
    y[2,4,3]  OBJ       8.078418      CON12     1.012855    
    y[2,4,3]  CON24     1.000000    
    z[1,1]    OBJ       799.388085    CON13     1.000000    
    z[1,2]    OBJ       528.955020    CON14     1.000000    
    z[1,3]    OBJ       984.554647    CON15     1.000000    
    z[2,1]    OBJ       580.008039    CON16     1.000000    
    z[2,2]    OBJ       562.868256    CON17     1.000000    
    z[2,3]    OBJ       649.950126    CON18     1.000000    
    z[3,1]    OBJ       628.631752    CON19     1.000000    
    z[3,2]    OBJ       910.672956    CON20     1.000000    
    z[3,3]    OBJ       895.705495    CON21     1.000000    
    z[4,1]    OBJ       599.306768    CON22     1.000000    
    z[4,2]    OBJ       867.857776    CON23     1.000000    
    z[4,3]    OBJ       622.479800    CON24     1.000000    
    MARKER    'MARKER'                 'INTEND'
RHS
    RHS       CON1      -0.000000     CON2      -0.000000   
    RHS       CON3      -0.000000     CON4      -0.000000   
    RHS       CON5      -0.000000     CON6      -0.000000   
    RHS       CON7      -0.000000     CON8      -0.000000   
    RHS       CON9      -0.000000     CON10     -0.000000   
    RHS       CON11     -0.000000     CON12     -0.000000   
    RHS       CON13     1.000000      CON14     1.000000    
    RHS       CON15     1.000000      CON16     1.000000    
    RHS       CON17     1.000000      CON18     1.000000    
    RHS       CON19     1.000000      CON20     1.000000    
    RHS       CON21     1.000000      CON22     1.000000    
    RHS       CON23     1.000000      CON24     1.000000    
BOUNDS
 BV BOUND     u[1,1]  
 BV BOUND     u[1,2]  
 BV BOUND     u[1,3]  
 BV BOUND     u[2,1]  
 BV BOUND     u[2,2]  
 BV BOUND     u[2,3]  
 BV BOUND     y[1,1,1]
 BV BOUND     y[1,1,2]
 BV BOUND     y[1,1,3]
 BV BOUND     y[1,2,1]
 BV BOUND     y[1,2,2]
 BV BOUND     y[1,2,3]
 BV BOUND     y[1,3,1]
 BV BOUND     y[1,3,2]
 BV BOUND     y[1,3,3]
 BV BOUND     y[1,4,1]
 BV BOUND     y[1,4,2]
 BV BOUND     y[1,4,3]
 BV BOUND     y[2,1,1]
 BV BOUND     y[2,1,2]
 BV BOUND     y[2,1,3]
 BV BOUND     y[2,2,1]
 BV BOUND     y[2,2,2]
 BV BOUND     y[2,2,3]
 BV BOUND     y[2,3,1]
 BV BOUND     y[2,3,2]
 BV BOUND     y[2,3,3]
 BV BOUND     y[2,4,1]
 BV BOUND     y[2,4,2]
 BV BOUND     y[2,4,3]
 BV BOUND     z[1,1]  
 BV BOUND     z[1,2]  
 BV BOUND     z[1,3]  
 BV BOUND     z[2,1]  
 BV BOUND     z[2,2]  
 BV BOUND     z[2,3]  
 BV BOUND     z[3,1]  
 BV BOUND     z[3,2]  
 BV BOUND     z[3,3]  
 BV BOUND     z[4,1]  
 BV BOUND     z[4,2]  
 BV BOUND     z[4,3]  
ENDATA
